
Welcome to IBM(R) ILOG(R) CPLEX(R) Interactive Optimizer 22.1.1.0
  with Simplex, Mixed Integer & Barrier Optimizers
5725-A06 5725-A29 5724-Y48 5724-Y49 5724-Y54 5724-Y55 5655-Y21
Copyright IBM Corp. 1988, 2022.  All Rights Reserved.

Type 'help' for a list of available commands.
Type 'help' followed by a command name for more
information on commands.

CPLEX> New value for default parallel thread count: 1
CPLEX> New value for time limit in seconds: 20
CPLEX> New value for mixed integer optimality gap tolerance: 0
CPLEX> Problem 'results\sealed_closure_round\raw\moderate_seed3302_auto_oracle\interval_1.lp' read.
Read time = 0.00 sec. (0.57 ticks)
CPLEX> Version identifier: 22.1.1.0 | 2022-11-27 | 9160aff4d
CPXPARAM_Threads                                 1
CPXPARAM_TimeLimit                               20
CPXPARAM_MIP_Tolerances_MIPGap                   0
Tried aggregator 2 times.
MIP Presolve eliminated 101 rows and 6 columns.
MIP Presolve modified 510 coefficients.
Aggregator did 63 substitutions.
Reduced MIP has 4871 rows, 2042 columns, and 23129 nonzeros.
Reduced MIP has 1467 binaries, 197 generals, 0 SOSs, and 0 indicators.
Presolve time = 0.02 sec. (18.14 ticks)
Probing fixed 0 vars, tightened 9 bounds.
Probing time = 0.02 sec. (44.68 ticks)
Tried aggregator 1 time.
Detecting symmetries...
MIP Presolve eliminated 12 rows and 12 columns.
MIP Presolve modified 12 coefficients.
Reduced MIP has 4859 rows, 2030 columns, and 22841 nonzeros.
Reduced MIP has 1461 binaries, 191 generals, 0 SOSs, and 0 indicators.
Presolve time = 0.02 sec. (18.22 ticks)
Probing time = 0.02 sec. (5.54 ticks)
Clique table members: 12324.
MIP emphasis: balance optimality and feasibility.
MIP search method: dynamic search.
Parallel mode: none, using 1 thread.
Root relaxation solution time = 0.08 sec. (183.40 ticks)

        Nodes                                         Cuts/
   Node  Left     Objective  IInf  Best Integer    Best Bound    ItCnt     Gap

      0     0        0.1199   183                      0.1199     1657
      0     0        0.1328   250                   Cuts: 271     2206
      0     0        0.1388   208                   Cuts: 357     2880
      0     0        0.1402   197                   Cuts: 153     3183
      0     0        0.1402   241                    Cuts: 72     3316
      0     0        0.1402   275                   Cuts: 119     3750
Detecting symmetries...
      0     0        0.1404   234                   Cuts: 127     3831
      0     0        0.1406   261                    Cuts: 45     3927
      0     0        0.1406   274                    Cuts: 95     4214
Detecting symmetries...
      0     2        0.1406   274                      0.1406     4214
Elapsed time = 0.98 sec. (2475.34 ticks, tree = 0.01 MB, solutions = 0)
      9    11        0.1435   205                      0.1416     5180
     21    15    infeasible                            0.1416     7435
     37    31        0.1572   199                      0.1416     8569
     40    34        0.1546   192                      0.1416     8797
     51    45        0.1570   179                      0.1416    10203
     79    69        0.1776   158                      0.1416    11576
     84    70        0.1429   263                      0.1417    12697
     91    73    infeasible                            0.1417    14178
     95    77        0.1700   224                      0.1417    15391
    119   101        0.1462   186                      0.1417    19486
Elapsed time = 2.28 sec. (6164.54 ticks, tree = 0.48 MB, solutions = 0)
    149   120        0.1432   231                      0.1422    23734
    168   135        0.1463   187                      0.1423    29513
    227   184    infeasible                            0.1423    33168
    259   208        0.1442   194                      0.1427    37062
    319   260        0.1468   200                      0.1427    40710
    360   291    infeasible                            0.1427    45441
    405   332        0.1528   167                      0.1428    48964
    487   391        0.1680   160                      0.1429    52785
    566   462        0.1542   141                      0.1429    56868
    661   541        0.1743   127                      0.1429    60992
Elapsed time = 5.62 sec. (15835.41 ticks, tree = 15.19 MB, solutions = 0)
    720   594        0.1683   157                      0.1432    64507
    755   623        0.1441   196                      0.1432    68610
    818   680    infeasible                            0.1432    73647
    891   742    infeasible                            0.1432    76504
    939   784        0.1729   175                      0.1432    80792
    982   821        0.1626   172                      0.1432    84733
   1033   854    infeasible                            0.1432    90153

Performing restart 1

Repeating presolve.
Tried aggregator 1 time.
Reduced MIP has 4859 rows, 2030 columns, and 22841 nonzeros.
Reduced MIP has 1461 binaries, 191 generals, 0 SOSs, and 0 indicators.
Presolve time = 0.02 sec. (9.07 ticks)
Tried aggregator 1 time.
MIP Presolve modified 20 coefficients.
Reduced MIP has 4859 rows, 2030 columns, and 22841 nonzeros.
Reduced MIP has 1461 binaries, 191 generals, 0 SOSs, and 0 indicators.
Presolve time = 0.02 sec. (12.62 ticks)
Represolve time = 0.08 sec. (133.42 ticks)
   1036     0        0.1410   241                   Cuts: 183    96316
   1036     0        0.1413   289                   Cuts: 205    97239
   1036     0        0.1417   340                   Cuts: 269    98490
   1036     0        0.1421   381                   Cuts: 286    99916
   1036     0        0.1422   373                   Cuts: 358   101068
   1036     0        0.1423   383                   Cuts: 289   101823
   1036     0        0.1423   392                   Cuts: 165   102412
   1036     0        0.1423   400                   Cuts: 257   103137
   1036     0        0.1425   334                   Cuts: 250   105388
   1036     0        0.1425   360                   Cuts: 370   106407
   1036     2        0.1425   360                      0.1432   106407
   1037     3        0.1451   325                      0.1432   108421
   1038     4        0.1454   330                      0.1432   108888
Elapsed time = 19.34 sec. (50496.71 ticks, tree = 0.01 MB, solutions = 0)
   1039     5        0.1459   309                      0.1432   109584

GUB cover cuts applied:  18
Cover cuts applied:  15
Implied bound cuts applied:  94
Flow cuts applied:  36
Mixed integer rounding cuts applied:  196
Zero-half cuts applied:  16
Lift and project cuts applied:  23
Gomory fractional cuts applied:  3

Root node processing (before b&c):
  Real time             =    0.97 sec. (2437.87 ticks)
Sequential b&c:
  Real time             =   19.05 sec. (49995.26 ticks)
                          ------------
Total (root+branch&cut) =   20.02 sec. (52433.13 ticks)


MIP - Time limit exceeded, no integer solution.
Current MIP best bound =  1.4322218711e-01 (gap is infinite)
Solution time =   20.02 sec.  Iterations = 109914  Nodes = 1040 (5)
Deterministic time = 52433.14 ticks  (2619.56 ticks/sec)

CPLEX> CPLEX Error  1217: No solution exists.
No file written.
CPLEX>
